(declare-fun e () String)
(declare-fun c () String)
(declare-fun g () String)
(declare-fun f () String)
(declare-fun a () String)
(declare-fun h () String)
(assert (= (str.++ "e" h "a" e h) (str.++ c g "d")))
(assert (= "a" f))
(assert (= (str.++ a e) (str.++ f g)))

(check-sat)
